language Essence 1.3

letting bot_end be [51, 54, 0, 2035, 43, 2256, 2041, 2580, 2638, 110, 435, 2515, 57, 55, 2635; int(1..15)]
letting bot_start be [2486, 2148, 1867, 163, 2477, 273, 54, 172, 282, 2306, 2532, 0, 2194, 2246, 59; int(1..15)]
letting buffer_col be 2
letting buffer_row be 2
letting corridor_size be 1
letting n_shelves_col be 17
letting n_shelves_row be 22
letting shelf_col_size be 2
letting shelf_row_size be 1
